NAME : POMORSKIE-n10
COMMENT : Auto generated by mgrVRP
TYPE : CVRP
DIMENSION : 10
EDGE_WEIGHT_TYPE : EUC_2D
CAPACITY : 200.0
NODE_COORD_SECTION
1 54.32232597028633 18.426039407621907
2 54.66287540541763 18.267391765384406
3 54.251063907473416 17.880036658475277
4 54.137351557864484 18.919800114032025
5 53.906418554419965 17.557118393283854
6 53.77425370551478 18.77363763696555
7 54.41162663826005 18.147070439846317
8 53.81244584700296 16.961507734653882
9 54.11492173060452 18.457266293589033
10 53.788865748723794 18.48038765976378
11 54.04945538292369 18.267040557265567
DEMAND_SECTION
1 0
2 48.0
3 55.0
4 36.0
5 31.0
6 58.0
7 39.0
8 44.0
9 57.0
10 47.0
11 32.0
DEPOT_SECTION
1
-1
EOF
